34 34
21
3 3 28 25
3 4 0 23
3 5 31 21
3 6 28 28
3 7 0 27
3 8 31 26
3 9 18 25
3 10 0 13
3 11 28 14
3 12 25 0
3 13 0 0
3 14 28 0
3 21 31 0
3 22 25 12
3 25 18 0
3 34 15 0
4 4 21 11
4 5 21 29
4 11 21 0
4 14 21 15
12 34 3 0
